0 0
1 0
2 0
3 0
4 19
5 2
6 16
7 13
8 13
9 13
10 4
11 7
12 5
13 1
14 2
15 12
16 7
17 8
18 22
19 22
20 23
21 23
22 23
23 23
24 22
25 22
26 22
27 2
28 1
29 2
30 5
31 18
32 9
33 6
34 3
35 14
36 14
37 7
38 15
39 0
40 9
41 9
42 8
43 10
44 7
45 6
46 8
47 8
48 2
49 3
50 16
51 6
52 15
53 0
54 12
55 23
56 23
57 15
58 20
59 3
60 23
61 10
62 11
63 10
64 5
65 11
66 10
67 5
68 10
69 10
70 10
71 3
72 1
73 6
74 14
75 18
76 12
77 21
78 20
79 21
80 21
81 9
82 21
83 7
84 20
85 21
86 9
87 18
88 8
89 21
90 20
91 4
92 4
93 5
94 6
95 13
96 2
97 14
98 14
99 5
100 1
101 1
102 2
103 0
104 5
105 14
106 17
107 4
108 0
109 8
110 5
111 16
112 4
113 0
114 1
115 17
116 8
117 1
118 0
119 19
120 3
121 2
122 1
123 1
124 2
125 17
126 17
127 16
128 14
129 12
130 18
131 17
132 4
133 11
134 11
135 18
136 12
137 6
138 6
139 15
140 18
141 15
142 8
143 10
144 11
145 16
146 5
147 2
148 2
149 16
150 16
151 2
152 2
153 14
154 14
155 10
156 14
157 0
158 19
159 17
160 11
161 18
162 2
163 16
164 14
165 15
166 12
167 1
168 0
169 0
170 2
171 0
172 15
173 9
174 5
175 17
176 11
177 0
178 15
179 1
180 17
181 19
182 5
183 16
184 7
185 19
186 0
187 14
188 7
189 19
